solvers/asterix/bench/ls/entl/clones-02-e09.tptp
%====Include axioms for Lists in Separation Logic
include('Axioms/SepLogicLists.ax').

cnf(premise_1,hypothesis,
    ( ~ nil = x1 )).

cnf(premise_2,hypothesis,
    ( ~ nil = x2 )).

cnf(premise_3,hypothesis,
    ( ~ nil = x3 )).

cnf(premise_4,hypothesis,
    ( ~ x1 = x2 )).

cnf(premise_5,hypothesis,
    ( ~ x2 = x3 )).

cnf(premise_6,hypothesis,
    ( ~ nil = x5 )).

cnf(premise_7,hypothesis,
    ( ~ nil = x6 )).

cnf(premise_8,hypothesis,
    ( ~ nil = x7 )).

cnf(premise_9,hypothesis,
    ( ~ x5 = x6 )).

cnf(premise_10,hypothesis,
    ( ~ x6 = x7 )).

cnf(premise_11,hypothesis,
    ( heap(sep(ls(x7, x5), sep(next(x5, x7), sep(ls(x3, x1), sep(next(x1, x3), emp))))) )).

cnf(conclusion_1,negated_conjecture,
    ( ~ heap(sep(ls(x8, x5), sep(next(x5, x8), sep(ls(x4, x1), sep(next(x1, x4), emp))))) )).

